rcpsp/heur_output_or_constraints/Log=10/heurj30.txt
encoding rcpsp/j30.sm/j3017_3.sm nv: 25050 nc: 67490 enctime: 0.55
encoding rcpsp/j30.sm/j3017_3.sm nv: 9150 nc: 23818 enctime: 0.11
c File: j3017_3.smnaiveor10.wcnf
c optimal
c final solution cost: 60
c CPU time: 0.138324
s OPTIMUM FOUND

c File: j3017_3.smor10.wcnf
c optimal
c final solution cost: 60
c CPU time: 0.023748
s OPTIMUM FOUND


rcpsp/heur_output_or_constraints/Log=10/heurj30.txt
encoding rcpsp/j30.sm/j3017_4.sm nv: 20160 nc: 52543 enctime: 0.43
encoding rcpsp/j30.sm/j3017_4.sm nv: 7140 nc: 17947 enctime: 0.08
c File: j3017_4.smnaiveor10.wcnf
c optimal
c final solution cost: 49
c CPU time: 0.196350
s OPTIMUM FOUND

c File: j3017_4.smor10.wcnf
c optimal
c final solution cost: 49
c CPU time: 0.027698
s OPTIMUM FOUND


rcpsp/heur_output_or_constraints/Log=10/heurj30.txt
encoding rcpsp/j30.sm/j3017_5.sm nv: 20960 nc: 58127 enctime: 0.47
encoding rcpsp/j30.sm/j3017_5.sm nv: 6681 nc: 17688 enctime: 0.08
c File: j3017_5.smnaiveor10.wcnf
c optimal
c final solution cost: 44
c CPU time: 0.268521
s OPTIMUM FOUND

c File: j3017_5.smor10.wcnf
c optimal
c final solution cost: 44
c CPU time: 0.036914
s OPTIMUM FOUND


rcpsp/heur_output_or_constraints/Log=10/heurj30.txt
encoding rcpsp/j30.sm/j3017_6.sm nv: 22378 nc: 62547 enctime: 0.53
encoding rcpsp/j30.sm/j3017_6.sm nv: 7504 nc: 20145 enctime: 0.09
c File: j3017_6.smnaiveor10.wcnf
c optimal
c final solution cost: 53
c CPU time: 0.137866
s OPTIMUM FOUND

c File: j3017_6.smor10.wcnf
c optimal
c final solution cost: 53
c CPU time: 0.022236
s OPTIMUM FOUND


rcpsp/heur_output_or_constraints/Log=10/heurj30.txt
encoding rcpsp/j30.sm/j3017_7.sm nv: 22428 nc: 65886 enctime: 0.56
encoding rcpsp/j30.sm/j3017_7.sm nv: 7686 nc: 21660 enctime: 0.10
c File: j3017_7.smnaiveor10.wcnf
c optimal
c final solution cost: 54
c CPU time: 0.172768
s OPTIMUM FOUND

c File: j3017_7.smor10.wcnf
c optimal
c final solution cost: 54
c CPU time: 0.033319
s OPTIMUM FOUND


rcpsp/heur_output_or_constraints/Log=10/heurj30.txt
encoding rcpsp/j30.sm/j3017_8.sm nv: 23635 nc: 63842 enctime: 0.52
encoding rcpsp/j30.sm/j3017_8.sm nv: 10150 nc: 26735 enctime: 0.13
c File: j3017_8.smnaiveor10.wcnf
c optimal
c final solution cost: 59
c CPU time: 0.224364
s OPTIMUM FOUND

c File: j3017_8.smor10.wcnf
c optimal
c final solution cost: 59
c CPU time: 0.057794
s OPTIMUM FOUND


rcpsp/heur_output_or_constraints/Log=10/heurj30.txt
encoding rcpsp/j30.sm/j3017_9.sm nv: 17290 nc: 44027 enctime: 0.35
encoding rcpsp/j30.sm/j3017_9.sm nv: 7049 nc: 17462 enctime: 0.08
c File: j3017_9.smnaiveor10.wcnf
c optimal
c final solution cost: 47
c CPU time: 0.096880
s OPTIMUM FOUND

c File: j3017_9.smor10.wcnf
c optimal
c final solution cost: 47
c CPU time: 0.022034
s OPTIMUM FOUND


rcpsp/heur_output_or_constraints/Log=10/heurj30.txt
encoding rcpsp/j30.sm/j301_7.sm nv: 19519 nc: 51488 enctime: 0.39
encoding rcpsp/j30.sm/j301_7.sm nv: 7860 nc: 20160 enctime: 0.09
c File: j301_7.smnaiveor10.wcnf
c optimal
c final solution cost: 55
c CPU time: 0.105894
s OPTIMUM FOUND

c File: j301_7.smor10.wcnf
c optimal
c final solution cost: 55
c CPU time: 0.023419
s OPTIMUM FOUND


rcpsp/heur_output_or_constraints/Log=10/heurj30.txt
encoding rcpsp/j30.sm/j3018_10.sm nv: 21646 nc: 58607 enctime: 0.47
encoding rcpsp/j30.sm/j3018_10.sm nv: 6987 nc: 18161 enctime: 0.08
c File: j3018_10.smnaiveor10.wcnf
c optimal
c final solution cost: 47
c CPU time: 0.144938
s OPTIMUM FOUND

c File: j3018_10.smor10.wcnf
c optimal
c final solution cost: 47
c CPU time: 0.026835
s OPTIMUM FOUND


rcpsp/heur_output_or_constraints/Log=10/heurj30.txt
encoding rcpsp/j30.sm/j3018_1.sm nv: 20664 nc: 57611 enctime: 0.48
encoding rcpsp/j30.sm/j3018_1.sm nv: 7056 nc: 18839 enctime: 0.09
c File: j3018_1.smnaiveor10.wcnf
c optimal
c final solution cost: 53
c CPU time: 0.156658
s OPTIMUM FOUND

c File: j3018_1.smor10.wcnf
c optimal
c final solution cost: 53
c CPU time: 0.026570
s OPTIMUM FOUND


rcpsp/heur_output_or_constraints/Log=10/heurj30.txt
encoding rcpsp/j30.sm/j3018_2.sm nv: 23572 nc: 64191 enctime: 0.52
encoding rcpsp/j30.sm/j3018_2.sm nv: 7952 nc: 20851 enctime: 0.09
c File: j3018_2.smnaiveor10.wcnf
c optimal
c final solution cost: 55
c CPU time: 0.141095
s OPTIMUM FOUND

c File: j3018_2.smor10.wcnf
c optimal
c final solution cost: 55
c CPU time: 0.024002
s OPTIMUM FOUND


rcpsp/heur_output_or_constraints/Log=10/heurj30.txt
encoding rcpsp/j30.sm/j3018_3.sm nv: 21504 nc: 60237 enctime: 0.50
encoding rcpsp/j30.sm/j3018_3.sm nv: 7296 nc: 19611 enctime: 0.09
c File: j3018_3.smnaiveor10.wcnf
c optimal
c final solution cost: 56
c CPU time: 0.187685
s OPTIMUM FOUND

c File: j3018_3.smor10.wcnf
c optimal
c final solution cost: 56
c CPU time: 0.024270
s OPTIMUM FOUND


rcpsp/heur_output_or_constraints/Log=10/heurj30.txt
encoding rcpsp/j30.sm/j3018_4.sm nv: 25088 nc: 76983 enctime: 0.66
encoding rcpsp/j30.sm/j3018_4.sm nv: 9728 nc: 28863 enctime: 0.13
c File: j3018_4.smnaiveor10.wcnf
c optimal
c final solution cost: 70
c CPU time: 0.191306
s OPTIMUM FOUND

c File: j3018_4.smor10.wcnf
c optimal
c final solution cost: 70
c CPU time: 0.038292
s OPTIMUM FOUND


rcpsp/heur_output_or_constraints/Log=10/heurj30.txt
encoding rcpsp/j30.sm/j3018_5.sm nv: 24966 nc: 68310 enctime: 0.55
encoding rcpsp/j30.sm/j3018_5.sm nv: 7300 nc: 19063 enctime: 0.08
c File: j3018_5.smnaiveor10.wcnf
c optimal
c final solution cost: 49
c CPU time: 0.160002
s OPTIMUM FOUND

c File: j3018_5.smor10.wcnf
c optimal
c final solution cost: 49
c CPU time: 0.018738
s OPTIMUM FOUND


rcpsp/heur_output_or_constraints/Log=10/heurj30.txt
encoding rcpsp/j30.sm/j3018_6.sm nv: 28055 nc: 76567 enctime: 0.62
encoding rcpsp/j30.sm/j3018_6.sm nv: 9765 nc: 25709 enctime: 0.12
c File: j3018_6.smnaiveor10.wcnf
c optimal
c final solution cost: 57
c CPU time: 0.204468
s OPTIMUM FOUND

c File: j3018_6.smor10.wcnf
c optimal
c final solution cost: 57
c CPU time: 0.040471
s OPTIMUM FOUND


rcpsp/heur_output_or_constraints/Log=10/heurj30.txt
encoding rcpsp/j30.sm/j3018_7.sm nv: 19720 nc: 51217 enctime: 0.41
encoding rcpsp/j30.sm/j3018_7.sm nv: 7072 nc: 17737 enctime: 0.08
c File: j3018_7.smnaiveor10.wcnf
c optimal
c final solution cost: 48
c CPU time: 0.153123
s OPTIMUM FOUND

c File: j3018_7.smor10.wcnf
c optimal
c final solution cost: 48
c CPU time: 0.021796
s OPTIMUM FOUND


rcpsp/heur_output_or_constraints/Log=10/heurj30.txt
encoding rcpsp/j30.sm/j3018_8.sm nv: 22848 nc: 62896 enctime: 0.51
encoding rcpsp/j30.sm/j3018_8.sm nv: 6800 nc: 17820 enctime: 0.08
c File: j3018_8.smnaiveor10.wcnf
c optimal
c final solution cost: 49
c CPU time: 0.139182
s OPTIMUM FOUND

c File: j3018_8.smor10.wcnf
c optimal
c final solution cost: 49
c CPU time: 0.017346
s OPTIMUM FOUND


rcpsp/heur_output_or_constraints/Log=10/heurj30.txt
encoding rcpsp/j30.sm/j3018_9.sm nv: 21352 nc: 57727 enctime: 0.47
encoding rcpsp/j30.sm/j3018_9.sm nv: 5984 nc: 15352 enctime: 0.06
c File: j3018_9.smnaiveor10.wcnf
c optimal
c final solution cost: 42
c CPU time: 0.140601
s OPTIMUM FOUND

c File: j3018_9.smor10.wcnf
c optimal
c final solution cost: 42
c CPU time: 0.017718
s OPTIMUM FOUND


rcpsp/heur_output_or_constraints/Log=10/heurj30.txt
encoding rcpsp/j30.sm/j301_8.sm nv: 21330 nc: 56841 enctime: 0.44
encoding rcpsp/j30.sm/j301_8.sm nv: 7965 nc: 20508 enctime: 0.09
c File: j301_8.smnaiveor10.wcnf
c optimal
c final solution cost: 53
c CPU time: 0.112520
s OPTIMUM FOUND

c File: j301_8.smor10.wcnf
c optimal
c final solution cost: 53
c CPU time: 0.022074
s OPTIMUM FOUND


rcpsp/heur_output_or_constraints/Log=10/heurj30.txt
encoding rcpsp/j30.sm/j3019_10.sm nv: 22110 nc: 60777 enctime: 0.50
encoding rcpsp/j30.sm/j3019_10.sm nv: 6432 nc: 16785 enctime: 0.07
c File: j3019_10.smnaiveor10.wcnf
c optimal
c final solution cost: 45
c CPU time: 0.132803
s OPTIMUM FOUND

c File: j3019_10.smor10.wcnf
c optimal
c final solution cost: 45
c CPU time: 0.019614
s OPTIMUM FOUND


rcpsp/heur_output_or_constraints/Log=10/heurj30.txt
encoding rcpsp/j30.sm/j3019_1.sm nv: 19448 nc: 49964 enctime: 0.41
encoding rcpsp/j30.sm/j3019_1.sm nv: 5576 nc: 13652 enctime: 0.06
c File: j3019_1.smnaiveor10.wcnf
c optimal
c final solution cost: 40
c CPU time: 0.105912
s OPTIMUM FOUND

c File: j3019_1.smor10.wcnf
c optimal
c final solution cost: 40
c CPU time: 0.012830
s OPTIMUM FOUND


rcpsp/heur_output_or_constraints/Log=10/heurj30.txt
encoding rcpsp/j30.sm/j3019_2.sm nv: 32736 nc: 86953 enctime: 0.68
encoding rcpsp/j30.sm/j3019_2.sm nv: 8624 nc: 21878 enctime: 0.13
c File: j3019_2.smnaiveor10.wcnf
c optimal
c final solution cost: 48
c CPU time: 0.176250
s OPTIMUM FOUND

c File: j3019_2.smor10.wcnf
c optimal
c final solution cost: 48
c CPU time: 0.019732
s OPTIMUM FOUND


rcpsp/heur_output_or_constraints/Log=10/heurj30.txt
encoding rcpsp/j30.sm/j3019_3.sm nv: 30173 nc: 91290 enctime: 0.78
encoding rcpsp/j30.sm/j3019_3.sm nv: 12012 nc: 35283 enctime: 0.22
c File: j3019_3.smnaiveor10.wcnf
c optimal
c final solution cost: 83
c CPU time: 0.207455
s OPTIMUM FOUND

c File: j3019_3.smor10.wcnf
c optimal
c final solution cost: 83
c CPU time: 0.040148
s OPTIMUM FOUND


rcpsp/heur_output_or_constraints/Log=10/heurj30.txt
encoding rcpsp/j30.sm/j3019_4.sm nv: 22052 nc: 55972 enctime: 0.44
encoding rcpsp/j30.sm/j3019_4.sm nv: 6216 nc: 14991 enctime: 0.06
c File: j3019_4.smnaiveor10.wcnf
c optimal
c final solution cost: 39
c CPU time: 0.118543
s OPTIMUM FOUND

c File: j3019_4.smor10.wcnf
c optimal
c final solution cost: 39
c CPU time: 0.018503
s OPTIMUM FOUND


rcpsp/heur_output_or_constraints/Log=10/heurj30.txt
encoding rcpsp/j30.sm/j3019_5.sm nv: 23452 nc: 63289 enctime: 0.51
encoding rcpsp/j30.sm/j3019_5.sm nv: 6435 nc: 16522 enctime: 0.07
c File: j3019_5.smnaiveor10.wcnf
c optimal
c final solution cost: 39
c CPU time: 0.136319
s OPTIMUM FOUND

c File: j3019_5.smor10.wcnf
c optimal
c final solution cost: 39
c CPU time: 0.017035
s OPTIMUM FOUND


rcpsp/heur_output_or_constraints/Log=10/heurj30.txt
encoding rcpsp/j30.sm/j3019_6.sm nv: 18495 nc: 47132 enctime: 0.37
encoding rcpsp/j30.sm/j3019_6.sm nv: 6750 nc: 16595 enctime: 0.08
c File: j3019_6.smnaiveor10.wcnf
c optimal
c final solution cost: 47
c CPU time: 0.103301
s OPTIMUM FOUND

c File: j3019_6.smor10.wcnf
c optimal
c final solution cost: 47
c CPU time: 0.020376
s OPTIMUM FOUND


rcpsp/heur_output_or_constraints/Log=10/heurj30.txt
encoding rcpsp/j30.sm/j3019_7.sm nv: 25551 nc: 67683 enctime: 0.54
encoding rcpsp/j30.sm/j3019_7.sm nv: 8721 nc: 22253 enctime: 0.10
c File: j3019_7.smnaiveor10.wcnf
c optimal
c final solution cost: 56
c CPU time: 0.280253
s OPTIMUM FOUND

c File: j3019_7.smor10.wcnf
c optimal
c final solution cost: 56
c CPU time: 0.026141
s OPTIMUM FOUND


rcpsp/heur_output_or_constraints/Log=10/heurj30.txt
encoding rcpsp/j30.sm/j3019_8.sm nv: 28028 nc: 77488 enctime: 0.63
encoding rcpsp/j30.sm/j3019_8.sm nv: 8624 nc: 22804 enctime: 0.10
c File: j3019_8.smnaiveor10.wcnf
c optimal
c final solution cost: 55
c CPU time: 0.168233
s OPTIMUM FOUND

c File: j3019_8.smor10.wcnf
c optimal
c final solution cost: 55
c CPU time: 0.023301
s OPTIMUM FOUND


rcpsp/heur_output_or_constraints/Log=10/heurj30.txt
encoding rcpsp/j30.sm/j3019_9.sm nv: 20925 nc: 55718 enctime: 0.45
encoding rcpsp/j30.sm/j3019_9.sm nv: 5400 nc: 13513 enctime: 0.06
c File: j3019_9.smnaiveor10.wcnf
c optimal
c final solution cost: 38
c CPU time: 0.119637
s OPTIMUM FOUND

c File: j3019_9.smor10.wcnf
c optimal
c final solution cost: 38
c CPU time: 0.013144
s OPTIMUM FOUND


rcpsp/heur_output_or_constraints/Log=10/heurj30.txt
encoding rcpsp/j30.sm/j301_9.sm nv: 22057 nc: 59801 enctime: 0.46
encoding rcpsp/j30.sm/j301_9.sm nv: 6576 nc: 17087 enctime: 0.07
c File: j301_9.smnaiveor10.wcnf
c optimal
c final solution cost: 46
c CPU time: 0.253357
s OPTIMUM FOUND

c File: j301_9.smor10.wcnf
c optimal
c final solution cost: 46
c CPU time: 0.026937
s OPTIMUM FOUND


rcpsp/heur_output_or_constraints/Log=10/heurj30.txt
encoding rcpsp/j30.sm/j3020_10.sm nv: 25254 nc: 60087 enctime: 0.44
encoding rcpsp/j30.sm/j3020_10.sm nv: 6771 nc: 15445 enctime: 0.07
c File: j3020_10.smnaiveor10.wcnf
c optimal
c final solution cost: 36
c CPU time: 0.106368
s OPTIMUM FOUND

c File: j3020_10.smor10.wcnf
c optimal
c final solution cost: 36
c CPU time: 0.013235
s OPTIMUM FOUND


rcpsp/heur_output_or_constraints/Log=10/heurj30.txt
encoding rcpsp/j30.sm/j3020_1.sm nv: 33672 nc: 88628 enctime: 0.69
encoding rcpsp/j30.sm/j3020_1.sm nv: 10672 nc: 27128 enctime: 0.17
c File: j3020_1.smnaiveor10.wcnf
c optimal
c final solution cost: 57
c CPU time: 0.174867
s OPTIMUM FOUND

c File: j3020_1.smor10.wcnf
c optimal
c final solution cost: 57
c CPU time: 0.025289
s OPTIMUM FOUND


rcpsp/heur_output_or_constraints/Log=10/heurj30.txt
encoding rcpsp/j30.sm/j3020_2.sm nv: 23838 nc: 67235 enctime: 0.57
encoding rcpsp/j30.sm/j3020_2.sm nv: 9042 nc: 24683 enctime: 0.12
c File: j3020_2.smnaiveor10.wcnf
c optimal
c final solution cost: 65
c CPU time: 0.166593
s OPTIMUM FOUND

c File: j3020_2.smor10.wcnf
c optimal
c final solution cost: 65
c CPU time: 0.026068
s OPTIMUM FOUND


rcpsp/heur_output_or_constraints/Log=10/heurj30.txt
encoding rcpsp/j30.sm/j3020_3.sm nv: 32398 nc: 87711 enctime: 0.72
encoding rcpsp/j30.sm/j3020_3.sm nv: 8350 nc: 21471 enctime: 0.14
c File: j3020_3.smnaiveor10.wcnf
c optimal
c final solution cost: 49
c CPU time: 0.187738
s OPTIMUM FOUND

c File: j3020_3.smor10.wcnf
c optimal
c final solution cost: 49
c CPU time: 0.019632
s OPTIMUM FOUND


rcpsp/heur_output_or_constraints/Log=10/heurj30.txt
encoding rcpsp/j30.sm/j3020_4.sm nv: 23380 nc: 62827 enctime: 0.52
encoding rcpsp/j30.sm/j3020_4.sm nv: 6160 nc: 15595 enctime: 0.06
c File: j3020_4.smnaiveor10.wcnf
c optimal
c final solution cost: 43
c CPU time: 0.135709
s OPTIMUM FOUND

c File: j3020_4.smor10.wcnf
c optimal
c final solution cost: 43
c CPU time: 0.013708
s OPTIMUM FOUND


rcpsp/heur_output_or_constraints/Log=10/heurj30.txt
encoding rcpsp/j30.sm/j3020_5.sm nv: 20224 nc: 56507 enctime: 0.47
encoding rcpsp/j30.sm/j3020_5.sm nv: 8064 nc: 21832 enctime: 0.10
c File: j3020_5.smnaiveor10.wcnf
c optimal
c final solution cost: 61
c CPU time: 0.119884
s OPTIMUM FOUND

c File: j3020_5.smor10.wcnf
c optimal
c final solution cost: 61
c CPU time: 0.023948
s OPTIMUM FOUND


rcpsp/heur_output_or_constraints/Log=10/heurj30.txt
encoding rcpsp/j30.sm/j3020_6.sm nv: 24047 nc: 66640 enctime: 0.54
encoding rcpsp/j30.sm/j3020_6.sm nv: 7228 nc: 19087 enctime: 0.08
c File: j3020_6.smnaiveor10.wcnf
c optimal
c final solution cost: 51
c CPU time: 0.144738
s OPTIMUM FOUND

c File: j3020_6.smor10.wcnf
c optimal
c final solution cost: 51
c CPU time: 0.017448
s OPTIMUM FOUND


rcpsp/heur_output_or_constraints/Log=10/heurj30.txt
encoding rcpsp/j30.sm/j3020_7.sm nv: 22491 nc: 57786 enctime: 0.45
encoding rcpsp/j30.sm/j3020_7.sm nv: 6174 nc: 15051 enctime: 0.07
c File: j3020_7.smnaiveor10.wcnf
c optimal
c final solution cost: 41
c CPU time: 0.120216
s OPTIMUM FOUND

c File: j3020_7.smor10.wcnf
c optimal
c final solution cost: 41
c CPU time: 0.013720
s OPTIMUM FOUND


rcpsp/heur_output_or_constraints/Log=10/heurj30.txt
encoding rcpsp/j30.sm/j3020_8.sm nv: 22737 nc: 60223 enctime: 0.49
encoding rcpsp/j30.sm/j3020_8.sm nv: 7436 nc: 18921 enctime: 0.09
c File: j3020_8.smnaiveor10.wcnf
c optimal
c final solution cost: 51
c CPU time: 0.126130
s OPTIMUM FOUND

c File: j3020_8.smor10.wcnf
c optimal
c final solution cost: 51
c CPU time: 0.018658
s OPTIMUM FOUND


rcpsp/heur_output_or_constraints/Log=10/heurj30.txt
encoding rcpsp/j30.sm/j3020_9.sm nv: 24964 nc: 62809 enctime: 0.51
encoding rcpsp/j30.sm/j3020_9.sm nv: 6162 nc: 14614 enctime: 0.06
c File: j3020_9.smnaiveor10.wcnf
c optimal
c final solution cost: 38
c CPU time: 0.126733
s OPTIMUM FOUND

c File: j3020_9.smor10.wcnf
c optimal
c final solution cost: 38
c CPU time: 0.012997
s OPTIMUM FOUND


